Welcome to the CBC MILP Solver 
Version: 2.10.10 
Build Date: Apr 19 2023 

command line - cbc /tmp/bef25b8b8bb941b1baca1b3364a252e9-pulp.mps max sec 15 timeMode elapsed branch printingOptions all solution /tmp/bef25b8b8bb941b1baca1b3364a252e9-pulp.sol (default strategy 1)
At line 2 NAME          MODEL
At line 3 ROWS
At line 20366 COLUMNS
At line 80793 RHS
At line 101155 BOUNDS
At line 108756 ENDATA
Problem MODEL has 20361 rows, 7600 columns and 59100 elements
Coin0008I MODEL read with 0 errors
seconds was changed from 1e+100 to 15
Option for timeMode changed from cpu to elapsed
Presolve 3354 (-17007) rows, 2516 (-5084) columns and 11260 (-47840) elements
Perturbing problem by 0.001% of 1 - largest nonzero change 0.00096604313 ( 0.19320863%) - largest zero change 0.00096365487
0  Obj 4 Primal inf 121.64224 (82) Dual inf 41.085145 (73)
142  Obj 19.967468 Primal inf 284.22142 (273)
284  Obj 19.957889 Primal inf 316.37218 (332)
426  Obj 19.954098 Primal inf 248.2918 (270)
568  Obj 19.949855 Primal inf 194.98253 (267)
710  Obj 19.947125 Primal inf 173.2508 (224)
852  Obj 19.945542 Primal inf 171.42766 (199)
994  Obj 19.943885 Primal inf 170.08087 (140)
1136  Obj 19.938971 Primal inf 127.18265 (143)
1278  Obj 19.936689 Primal inf 0.499998 (2)
1281  Obj 19.936689
Optimal - objective value 20
After Postsolve, objective 20, infeasibilities - dual 0 (0), primal 0 (0)
Optimal objective 20 - 1281 iterations time 0.162, Presolve 0.06
Option for printingOptions changed from normal to all
Total time (CPU seconds):       0.38   (Wallclock seconds):       0.12

Welcome to the CBC MILP Solver 
Version: 2.10.10 
Build Date: Apr 19 2023 

command line - cbc /tmp/6e1f76d48f8d422bb4aa2e530141ccd4-pulp.mps max sec 15 timeMode elapsed branch printingOptions all solution /tmp/6e1f76d48f8d422bb4aa2e530141ccd4-pulp.sol (default strategy 1)
At line 2 NAME          MODEL
At line 3 ROWS
At line 20366 COLUMNS
At line 95993 RHS
At line 116355 BOUNDS
At line 123956 ENDATA
Problem MODEL has 20361 rows, 7600 columns and 59100 elements
Coin0008I MODEL read with 0 errors
seconds was changed from 1e+100 to 15
Option for timeMode changed from cpu to elapsed
Continuous objective value is 20 - 0.15 seconds
Cgl0002I 3315 variables fixed
Cgl0003I 687 fixed, 0 tightened bounds, 1572 strengthened rows, 1183 substitutions
Cgl0003I 0 fixed, 0 tightened bounds, 101 strengthened rows, 127 substitutions
Cgl0003I 0 fixed, 0 tightened bounds, 545 strengthened rows, 0 substitutions
Cgl0003I 32 fixed, 0 tightened bounds, 312 strengthened rows, 252 substitutions
Cgl0003I 14 fixed, 0 tightened bounds, 210 strengthened rows, 2 substitutions
Cgl0003I 32 fixed, 0 tightened bounds, 172 strengthened rows, 2 substitutions
Cgl0003I 0 fixed, 0 tightened bounds, 138 strengthened rows, 2 substitutions
Cgl0003I 4 fixed, 0 tightened bounds, 114 strengthened rows, 136 substitutions
Cgl0003I 0 fixed, 0 tightened bounds, 87 strengthened rows, 0 substitutions
Cgl0003I 4 fixed, 0 tightened bounds, 45 strengthened rows, 188 substitutions
Cgl0003I 0 fixed, 0 tightened bounds, 5 strengthened rows, 2 substitutions
Cgl0003I 0 fixed, 0 tightened bounds, 7 strengthened rows, 76 substitutions
Cgl0003I 0 fixed, 0 tightened bounds, 5 strengthened rows, 0 substitutions
Cgl0003I 0 fixed, 0 tightened bounds, 5 strengthened rows, 0 substitutions
Cgl0003I 0 fixed, 0 tightened bounds, 5 strengthened rows, 0 substitutions
Cgl0004I processed model has 1755 rows, 1561 columns (1561 integer (1505 of which binary)) and 7425 elements
Cbc0038I Initial state - 18 integers unsatisfied sum - 9
Cbc0038I Pass   1: suminf.    0.50000 (1) obj. 20 iterations 241
Cbc0038I Solution found of 20
Cbc0038I Cleaned solution of 20
Cbc0038I Before mini branch and bound, 1541 integers at bound fixed and 1 continuous
Cbc0038I Mini branch and bound did not improve solution (0.28 seconds)
Cbc0038I After 0.28 seconds - Feasibility pump exiting with objective of 20 - took 0.01 seconds
Cbc0012I Integer solution of 20 found by feasibility pump after 0 iterations and 0 nodes (0.28 seconds)
Cbc0001I Search completed - best objective 19.9999999999997, took 0 iterations and 0 nodes (0.28 seconds)
Cbc0035I Maximum depth 0, 0 variables fixed on reduced cost
Cuts at root node changed objective from 20 to 20
Probing was tried 0 times and created 0 cuts of which 0 were active after adding rounds of cuts (0.000 seconds)
Gomory was tried 0 times and created 0 cuts of which 0 were active after adding rounds of cuts (0.000 seconds)
Knapsack was tried 0 times and created 0 cuts of which 0 were active after adding rounds of cuts (0.000 seconds)
Clique was tried 0 times and created 0 cuts of which 0 were active after adding rounds of cuts (0.000 seconds)
MixedIntegerRounding2 was tried 0 times and created 0 cuts of which 0 were active after adding rounds of cuts (0.000 seconds)
FlowCover was tried 0 times and created 0 cuts of which 0 were active after adding rounds of cuts (0.000 seconds)
TwoMirCuts was tried 0 times and created 0 cuts of which 0 were active after adding rounds of cuts (0.000 seconds)
ZeroHalf was tried 0 times and created 0 cuts of which 0 were active after adding rounds of cuts (0.000 seconds)

Result - Optimal solution found

Objective value:                20.00000000
Enumerated nodes:               0
Total iterations:               0
Time (CPU seconds):             0.39
Time (Wallclock seconds):       0.31

Option for printingOptions changed from normal to all
Total time (CPU seconds):       0.60   (Wallclock seconds):       0.38

